50
94.41
0 49 0.54 0.54
1 48 0.4 0.5
2 47 0.48 0.51
3 46 0.49 0.54
4 45 0.53 0.47
5 44 0.44 0.51
6 43 0.41 0.55
7 42 0.38 0.54
8 41 0.53 0.45
9 40 0.5 0.52
10 39 0.51 0.5
11 38 0.5 0.45
12 37 0.51 0.57
13 36 0.54 0.56
14 35 0.5 0.45
15 34 0.57 0.57
16 33 0.46 0.42
17 32 0.51 0.54
18 31 0.47 0.43
19 30 0.41 0.47
20 29 0.57 0.47
21 28 0.48 0.54
22 27 0.45 0.49
23 26 0.5 0.51
24 25 0.48 0.56
25 24 0.51 0.47
26 23 0.47 0.51
27 22 0.51 0.46
28 21 0.58 0.62
29 20 0.44 0.48
30 19 0.47 0.46
31 18 0.65 0.54
32 17 0.52 0.47
33 16 0.39 0.61
34 15 0.5 0.61
35 14 0.69 0.5
36 13 0.4 0.4
37 12 0.41 0.33
38 11 0.48 0.47
39 10 0.4 0.42
40 9 0.52 0.54
41 8 0.42 0.62
42 7 0.51 0.48
43 6 0.44 0.54
44 5 0.43 0.49
45 4 0.18 0.57
46 3 0.55 0.39
47 2 0.36 0.77
48 1 0.33 0.2
